NAME: st70-20-3
TYPE: TSP
COMMENT: min_cost = 365.46
DIMENSION: 20
EDGE_WEIGHT_TYPE: EUC_2D
NODE_COORD_SECTION
1 90 9
2 25 76
3 58 85
4 54 38
5 57 91
6 28 43
7 48 67
8 6 8
9 79 17
10 48 82
11 93 54
12 82 88
13 92 34
14 44 33
15 83 86
16 10 68
17 17 22
18 16 74
19 17 82
20 63 36
EOF
